(set-logic QF_S)
(declare-fun x () String)
(declare-fun y () String)
(declare-fun z () Int)
(assert (not (= (str.replace "B" (str.replace "A" x "B") x) (str.replace "B" (str.replace x "A" "B") x))))
(check-sat)
